400
150 150
1 120 130
2 120 586
3 120 551
4 120 303
5 119 344
6 119 182
7 118 680
8 117 54
9 117 11
10 117 991
11 117 773
12 116 283
13 116 835
14 116 861
15 116 165
16 116 219
17 115 746
18 115 949
19 115 195
20 115 336
21 115 566
22 114 415
23 114 915
24 114 10
25 114 123
26 113 635
27 113 644
28 113 972
29 112 921
30 112 830
31 112 637
32 112 353
33 111 310
34 111 44
35 111 672
36 111 997
37 111 773
38 111 920
39 111 373
40 111 495
41 110 74
42 110 312
43 110 735
44 110 340
45 110 11
46 110 506
47 109 267
48 109 226
49 109 123
50 109 575
51 109 684
52 109 992
53 109 77
54 108 154
55 108 751
56 108 560
57 108 827
58 108 12
59 107 450
60 107 36
61 107 248
62 107 700
63 107 482
64 106 245
65 106 493
66 106 745
67 106 625
68 106 820
69 106 985
70 106 548
71 105 156
72 105 73
73 105 348
74 105 166
75 105 512
76 105 496
77 105 830
78 104 404
79 104 103
80 104 607
81 104 96
82 104 566
83 104 213
84 104 401
85 103 467
86 103 582
87 103 457
88 103 251
89 103 932
90 103 683
91 102 460
92 102 148
93 102 462
94 102 622
95 102 110
96 102 665
97 102 764
98 102 652
99 102 884
100 102 286
101 101 179
102 101 432
103 100 255
104 100 836
105 100 738
106 100 618
107 99 198
108 99 976
109 99 391
110 99 916
111 99 236
112 98 685
113 98 313
114 98 760
115 98 899
116 98 620
117 98 703
118 98 416
119 97 28
120 97 270
121 97 719
122 97 702
123 97 891
124 97 681
125 96 300
126 96 566
127 96 745
128 96 133
129 96 137
130 96 378
131 96 660
132 95 913
133 95 741
134 95 482
135 95 440
136 95 795
137 94 418
138 94 873
139 94 424
140 94 729
141 94 325
142 94 604
143 93 456
144 93 706
145 93 235
146 92 840
147 91 307
148 91 919
149 90 150
150 90 257
151 90 215
152 90 462
153 90 107
154 90 817
155 89 204
156 89 233
157 89 131
158 88 640
159 88 437
160 88 952
161 87 772
162 87 468
163 87 619
164 86 348
165 86 399
166 86 398
167 86 999
168 85 649
169 84 191
170 84 207
171 84 597
172 84 473
173 83 840
174 82 210
175 82 372
176 82 666
177 82 538
178 82 692
179 82 898
180 82 517
181 82 185
182 81 771
183 81 700
184 80 2
185 80 115
186 80 921
187 79 88
188 79 739
189 79 867
190 79 991
191 78 670
192 78 508
193 78 174
194 78 919
195 78 972
196 78 999
197 78 66
198 78 642
199 77 230
200 77 53
201 77 71
202 77 936
203 77 540
204 77 738
205 76 806
206 76 907
207 76 876
208 76 745
209 76 739
210 75 50
211 75 150
212 75 117
213 75 871
214 75 945
215 74 363
216 74 120
217 74 289
218 73 641
219 73 490
220 73 393
221 73 96
222 73 254
223 71 452
224 71 225
225 71 876
226 71 567
227 71 224
228 71 929
229 71 814
230 71 496
231 71 979
232 70 736
233 70 379
234 70 774
235 70 838
236 69 600
237 69 22
238 69 879
239 68 697
240 68 733
241 68 1
242 67 761
243 67 490
244 67 219
245 66 68
246 66 775
247 66 217
248 65 515
249 65 988
250 65 780
251 64 448
252 64 666
253 64 279
254 63 267
255 63 526
256 63 213
257 62 93
258 61 878
259 61 256
260 60 766
261 60 922
262 60 24
263 60 67
264 60 984
265 60 709
266 60 622
267 59 327
268 59 674
269 59 450
270 59 55
271 58 151
272 58 841
273 57 635
274 57 311
275 57 907
276 57 561
277 56 918
278 56 318
279 56 665
280 55 176
281 55 82
282 54 143
283 54 910
284 54 35
285 54 752
286 54 176
287 54 706
288 54 847
289 54 280
290 54 654
291 54 57
292 54 320
293 53 765
294 53 37
295 53 939
296 52 137
297 52 845
298 52 930
299 51 52
300 51 459
301 50 593
302 50 259
303 50 532
304 49 544
305 49 242
306 49 394
307 48 627
308 48 575
309 48 114
310 48 939
311 48 156
312 48 415
313 48 895
314 47 155
315 46 99
316 46 253
317 46 350
318 46 599
319 46 170
320 46 684
321 46 66
322 45 453
323 45 722
324 45 912
325 45 19
326 44 607
327 44 296
328 44 250
329 44 911
330 44 978
331 44 787
332 44 285
333 44 20
334 43 188
335 43 836
336 43 743
337 43 91
338 43 107
339 43 212
340 42 742
341 42 640
342 42 907
343 41 317
344 41 951
345 41 408
346 41 116
347 41 826
348 41 521
349 41 429
350 41 591
351 40 8
352 40 740
353 40 793
354 40 79
355 39 186
356 39 372
357 39 333
358 39 10
359 39 862
360 39 73
361 39 689
362 38 808
363 38 407
364 38 115
365 38 733
366 37 837
367 37 671
368 37 274
369 36 968
370 36 458
371 36 870
372 36 68
373 36 899
374 35 43
375 35 301
376 34 804
377 34 570
378 34 214
379 34 498
380 33 53
381 33 30
382 33 511
383 33 534
384 33 358
385 33 402
386 33 950
387 32 752
388 32 223
389 32 59
390 32 568
391 32 333
392 32 940
393 32 346
394 32 782
395 32 549
396 31 27
397 31 989
398 30 420
399 30 715
400 30 164
